p cnf 7230 17
-5793 5944 0
-5615 -5805 -5949 0
-5609 -5799 -5947 0
-5607 -5797 -5945 0
5615 -5950 0
5609 -5948 0
5607 -5946 0
5949 5950 0
5947 5948 0
5945 5946 0
5805 -5950 0
5799 -5948 0
5797 -5946 0
-5943 -5944 0
5807 -5952 0
5617 -5952 0
5943 5944 0
